/*********************************************
 * OPL 12.4 Data
 * Author: kbarreau
 * Creation Date: 13 oct. 2015 at 11:13:07
 *********************************************/

Capacity = 10;
Items = {
	<4,10>,
	<1,12>,
	<4,8>,
	<1,8>,
	<3,7>,
	<3,3>,
	<2,10>,
	<4,10>,
	<3,10>,
	<3,9>,
	<1,13>,
	<4,10>,
	<2,11>,
	<4,5>
};